NAME : KROB99C.25795.tour
COMMENT : Cost = 0_25795
COMMENT : Found by LKH [Keld Helsgaun] Sun Sep 17 16:52:41 2017
TYPE : TOUR
DIMENSION : 99
TOUR_SECTION
1
89
9
34
57
86
4
82
64
14
42
2
13
78
17
41
36
45
16
50
88
43
52
54
37
72
49
85
68
10
21
94
97
32
76
59
29
8
98
96
90
28
3
11
92
84
73
53
70
39
40
67
5
62
56
99
26
69
75
30
38
20
80
65
79
81
47
87
23
22
55
77
24
18
95
91
19
44
63
31
48
51
15
33
6
66
74
60
58
83
7
93
35
61
27
25
46
71
12
-1
EOF
